webassembly/ejemplos_dzn/folder7_json_30.dzn
TERM = { '.', 'in_1', 'local_0', 'in_6', 'in_2', 'in_4', 'in_3', 's(0)', 'in_5', 'in_0'};
null = '.';
s = 7;
n = 12;
ndeps = 4;
max_registers_sz = 3;
NR = 0;
registers = [| |];
dependencies = [|'call[function_index(0)]_0', 'i32.store16_1', |'i32.store16_1', 'i32.load8_s_2', |'i32.load8_s_2', 'i32.store16_3', |'i32.store16_3', 'i32.store16_6'|];
GET_ENUM = { GET1, GET2, GET3};
SET_ENUM = { SET1, SET2, SET3};
TEE_ENUM = { TEE1, TEE2, TEE3};
N = 6;
OP = { 'call[function_index(0)]_0', 'i32.store16_1', 'i32.load8_s_2', 'i32.store16_3', 'i32.store16_6', 'local.get_0' };
in_ops = [2, 2, 1, 2, 2, 0 ];
out_ops = [0, 0, 1, 0, 0, 1 ];
in1 = ['in_0', 'in_2', 'in_4', 's(0)', 'local_0', '.' ];
in2 = ['in_1', 'in_3', '.', 'in_5', 'in_6', '.' ];
in3 = ['.', '.', '.', '.', '.', '.' ];
out1 = ['.', '.', 's(0)', '.', '.', 'local_0' ];
out2 = ['.', '.', '.', '.', '.', '.' ];
out3 = ['.', '.', '.', '.', '.', '.' ];
comm = [false, false, false, false, false, false ];
gas = [1, 1, 1, 1, 1, 1 ];
sz = [1, 1, 1, 1, 1, 1 ];
stor = [true, true, false, true, true, false ];
lb = [ 1, 1, 1, 1, 1, 1 ];
ub = [ 7, 7, 7, 7, 7, 7 ];
startstack = [ 'in_0', 'in_1', 'in_2', 'in_3', 'in_4', 'in_5', 'in_6', null, null, null, null, null ];
endstack = [ null, null, null, null, null, null, null, null, null, null, null, null ];
